c Circuit-CNF generated by TG-PRO v1.0 (c) Huan Chen and Joao Marques-Silva
p cnf 270 703
-1 -2 0
-1 -3 0
1 2 3 0
4 5 0
4 6 0
-4 -5 -6 0
7 8 0
7 9 0
-7 -8 -9 0
10 11 0
10 12 0
-10 -11 -12 0
13 14 0
13 15 0
-13 -14 -15 0
16 17 0
16 18 0
-16 -17 -18 0
19 20 0
19 21 0
-19 -20 -21 0
22 23 0
22 24 0
-22 -23 -24 0
25 26 0
25 27 0
-25 -26 -27 0
28 29 0
28 30 0
-28 -29 -30 0
31 32 0
31 33 0
-31 -32 -33 0
34 35 0
34 36 0
-34 -35 -36 0
37 38 0
37 39 0
-37 -38 -39 0
40 41 0
-40 -41 0
42 43 0
-42 -43 0
44 45 0
-44 -45 0
46 47 0
-46 -47 0
48 49 0
-48 -49 0
50 51 0
-50 -51 0
52 53 0
-52 -53 0
54 55 0
-54 -55 0
56 57 0
-56 -57 0
58 59 0
-58 -59 0
60 61 0
-60 -61 0
62 63 0
-62 -63 0
-2 -49 0
-2 -51 0
2 49 51 0
64 2 0
-64 -2 0
65 51 0
65 53 0
-65 -51 -53 0
66 65 0
-66 -65 0
-67 -49 0
-67 -53 0
67 49 53 0
68 67 0
-68 -67 0
-69 -48 0
-69 -53 0
69 48 53 0
70 69 0
-70 -69 0
71 48 0
71 55 0
-71 -48 -55 0
72 71 0
-72 -71 0
73 58 0
73 56 0
-73 -58 -56 0
74 73 0
-74 -73 0
-75 -76 0
-75 -52 0
75 76 52 0
3 75 0
-3 -75 0
77 56 0
77 69 0
-77 -56 -69 0
78 77 0
-78 -77 0
79 55 0
79 80 0
-79 -55 -80 0
81 79 0
-81 -79 0
-82 -83 0
-82 -68 0
82 83 68 0
84 82 0
-84 -82 0
-85 -86 0
-85 -87 0
85 86 87 0
88 85 0
-88 -85 0
89 90 0
89 53 0
-89 -90 -53 0
91 89 0
-91 -89 0
92 54 0
92 93 0
-92 -54 -93 0
94 92 0
-94 -92 0
-95 -96 0
-95 -52 0
95 96 52 0
97 95 0
-97 -95 0
-98 -57 0
-98 -99 0
98 57 99 0
100 98 0
-100 -98 0
101 102 0
101 56 0
-101 -102 -56 0
103 101 0
-103 -101 0
-104 -105 0
-104 -106 0
104 105 106 0
107 104 0
-107 -104 0
108 109 0
108 82 0
-108 -109 -82 0
110 108 0
-110 -108 0
-111 -112 0
-111 -113 0
111 112 113 0
114 111 0
-114 -111 0
-115 -116 0
-115 -117 0
115 116 117 0
118 115 0
-118 -115 0
-87 119 0
-87 53 0
87 -119 -53 0
-120 121 0
-120 59 0
120 -121 -59 0
-122 123 0
-122 57 0
122 -123 -57 0
-86 124 0
-86 52 0
86 -124 -52 0
-125 52 0
-125 2 0
125 -52 -2 0
-126 62 0
-126 127 0
126 -62 -127 0
128 48 0
128 51 0
-128 -48 -51 0
-129 128 0
-129 55 0
129 -128 -55 0
-130 -48 0
-130 -51 0
130 48 51 0
-131 58 0
-131 130 0
131 -58 -130 0
-132 -83 0
-132 -52 0
132 83 52 0
-133 59 0
-133 132 0
133 -59 -132 0
-93 -48 0
-93 -56 0
93 48 56 0
-134 93 0
-134 132 0
134 -93 -132 0
-135 50 0
-135 93 0
135 -50 -93 0
-90 -51 0
-90 -54 0
90 51 54 0
-136 93 0
-136 90 0
136 -93 -90 0
99 137 0
99 138 0
-99 -137 -138 0
-139 99 0
-139 56 0
139 -99 -56 0
140 83 0
140 58 0
-140 -83 -58 0
-141 142 0
-141 53 0
141 -142 -53 0
-80 -65 0
-80 -49 0
80 65 49 0
143 144 0
143 58 0
-143 -144 -58 0
-145 80 0
-145 143 0
145 -80 -143 0
-146 -147 0
-146 -128 0
146 147 128 0
148 60 0
148 41 0
-148 -60 -41 0
-149 146 0
-149 148 0
149 -146 -148 0
-102 -138 0
-102 -66 0
102 138 66 0
-150 -48 0
-150 -58 0
150 48 58 0
-151 102 0
-151 150 0
151 -102 -150 0
-152 82 0
-152 153 0
152 -82 -153 0
-154 -64 0
-154 -155 0
154 64 155 0
-156 154 0
-156 157 0
156 -154 -157 0
-158 59 0
-158 154 0
158 -59 -154 0
-138 -51 0
-138 -53 0
138 51 53 0
159 160 0
159 58 0
-159 -160 -58 0
-117 161 0
-117 159 0
117 -161 -159 0
-162 -163 0
-162 -65 0
162 163 65 0
164 127 0
164 63 0
-164 -127 -63 0
-165 166 0
-165 54 0
165 -166 -54 0
-167 56 0
-167 162 0
167 -56 -162 0
-113 78 0
-113 50 0
113 -78 -50 0
-168 -70 0
-168 -50 0
168 70 50 0
-169 159 0
-169 168 0
169 -159 -168 0
170 146 0
170 56 0
-170 -146 -56 0
171 112 0
171 52 0
-171 -112 -52 0
-172 170 0
-172 171 0
172 -170 -171 0
-173 -174 0
-173 -96 0
173 174 96 0
-175 173 0
-175 88 0
175 -173 -88 0
-116 176 0
-116 91 0
116 -176 -91 0
-177 53 0
-177 94 0
177 -53 -94 0
178 179 0
178 180 0
-178 -179 -180 0
-181 48 0
-181 178 0
181 -48 -178 0
182 183 0
182 184 0
-182 -183 -184 0
-185 74 0
-185 182 0
185 -74 -182 0
186 187 0
186 188 0
-186 -187 -188 0
-189 57 0
-189 186 0
189 -57 -186 0
-190 54 0
-190 114 0
190 -54 -114 0
-191 48 0
-191 118 0
191 -48 -118 0
192 -193 0
192 -49 0
-192 193 49 0
109 -194 0
109 -46 0
-109 194 46 0
195 -50 0
195 -48 0
-195 50 48 0
196 -57 0
196 -65 0
-196 57 65 0
160 -56 0
160 -54 0
-160 56 54 0
179 -56 0
179 -52 0
-179 56 52 0
197 198 0
197 53 0
-197 -198 -53 0
180 -127 0
180 -197 0
-180 127 197 0
199 -73 0
199 -71 0
-199 73 71 0
200 69 0
200 198 0
-200 -69 -198 0
201 -54 0
201 -200 0
-201 54 200 0
202 -57 0
202 -200 0
-202 57 200 0
83 55 0
83 51 0
-83 -55 -51 0
5 -203 0
5 -59 0
-5 203 59 0
8 -77 0
8 -140 0
-8 77 140 0
-204 -205 0
-204 -44 0
204 205 44 0
206 -79 0
206 -204 0
-206 79 204 0
207 -79 0
207 -44 0
-207 79 44 0
208 80 0
208 54 0
-208 -80 -54 0
209 -144 0
209 -208 0
-209 144 208 0
-210 -120 0
-210 -122 0
210 120 122 0
211 -208 0
211 -210 0
-211 208 210 0
6 -92 0
6 -65 0
-6 92 65 0
-212 -155 0
-212 -58 0
212 155 58 0
213 -212 0
213 -98 0
-213 212 98 0
214 -74 0
214 -70 0
-214 74 70 0
215 -74 0
215 -128 0
-215 74 128 0
216 -78 0
216 -150 0
-216 78 150 0
-217 -67 0
-217 -129 0
217 67 129 0
23 -58 0
23 -217 0
-23 58 217 0
163 58 0
163 49 0
-163 -58 -49 0
218 -101 0
218 -163 0
-218 101 163 0
219 -84 0
219 -46 0
-219 84 46 0
220 -95 0
220 -94 0
-220 95 94 0
-221 -106 0
-221 -126 0
221 106 126 0
222 -94 0
222 -221 0
-222 94 221 0
17 -49 0
17 -97 0
-17 49 97 0
223 -48 0
223 -97 0
-223 48 97 0
-224 -225 0
-224 -103 0
224 225 103 0
226 -49 0
226 -224 0
-226 49 224 0
155 53 0
155 54 0
-155 -53 -54 0
227 228 0
227 67 0
-227 -228 -67 0
96 55 0
96 56 0
-96 -55 -56 0
-137 -55 0
-137 -59 0
137 55 59 0
106 137 0
106 49 0
-106 -137 -49 0
-198 -59 0
-198 -51 0
198 59 51 0
229 230 0
229 83 0
-229 -230 -83 0
-225 -137 0
-225 -50 0
225 137 50 0
12 49 0
12 225 0
-12 -49 -225 0
231 196 0
231 197 0
-231 -196 -197 0
-112 -128 0
-112 -58 0
112 128 58 0
232 58 0
232 72 0
-232 -58 -72 0
184 233 0
184 154 0
-184 -233 -154 0
234 235 0
234 130 0
-234 -235 -130 0
236 202 0
236 89 0
-236 -202 -89 0
33 168 0
33 96 0
-33 -168 -96 0
237 81 0
237 121 0
-237 -81 -121 0
188 192 0
188 91 0
-188 -192 -91 0
238 213 0
238 48 0
-238 -213 -48 0
-9 -98 0
-9 -134 0
9 98 134 0
-239 -74 0
-239 -53 0
239 74 53 0
240 55 0
240 239 0
-240 -55 -239 0
241 214 0
241 97 0
-241 -214 -97 0
242 243 0
242 229 0
-242 -243 -229 0
30 216 0
30 51 0
-30 -216 -51 0
-244 -245 0
-244 -93 0
244 245 93 0
-246 -156 0
-246 -152 0
246 156 152 0
247 220 0
247 50 0
-247 -220 -50 0
248 222 0
248 51 0
-248 -222 -51 0
-27 -249 0
-27 -133 0
27 249 133 0
-250 -239 0
-250 -55 0
250 239 55 0
-15 -231 0
-15 -125 0
15 231 125 0
-18 -75 0
-18 -169 0
18 75 169 0
-251 -165 0
-251 -177 0
251 165 177 0
252 253 0
252 238 0
-252 -253 -238 0
-254 -255 0
-254 -236 0
254 255 236 0
-256 -95 0
-256 -145 0
256 95 145 0
-21 -257 0
-21 -241 0
21 257 241 0
-258 -259 0
-258 -136 0
258 259 136 0
-36 -252 0
-36 -149 0
36 252 149 0
-24 -141 0
-24 -190 0
24 141 190 0
-260 -175 0
-260 -191 0
260 175 191 0
-261 -262 0
-261 -185 0
261 262 185 0
263 264 0
263 261 0
-263 -264 -261 0
-39 -263 0
-39 -189 0
39 263 189 0
-249 -49 0
-249 -139 0
249 49 139 0
-262 -40 0
-262 -172 0
262 40 172 0
-265 100 0
-265 244 0
265 -100 -244 0
-11 265 0
-11 70 0
11 -265 -70 0
-14 195 0
-14 250 0
14 -195 -250 0
-20 226 0
-20 199 0
20 -226 -199 0
-26 218 0
-26 201 0
26 -218 -201 0
-266 247 0
-266 232 0
266 -247 -232 0
-29 266 0
-29 240 0
29 -266 -240 0
-267 248 0
-267 254 0
267 -248 -254 0
-32 267 0
-32 256 0
32 -267 -256 0
-35 206 0
-35 258 0
35 -206 -258 0
-38 107 0
-38 234 0
38 -107 -234 0
76 -58 0
76 -54 0
-76 58 54 0
105 -102 0
105 -57 0
-105 102 57 0
-142 140 0
-142 49 0
142 -140 -49 0
147 -55 0
147 -53 0
-147 55 53 0
-161 157 0
-161 138 0
161 -157 -138 0
-166 162 0
-166 164 0
166 -162 -164 0
174 -64 0
174 -59 0
-174 64 59 0
-176 59 0
-176 268 0
176 -59 -268 0
-183 219 0
-183 207 0
183 -219 -207 0
-269 246 0
-269 227 0
269 -246 -227 0
-187 269 0
-187 237 0
187 -269 -237 0
203 -83 0
203 -77 0
-203 83 77 0
-228 54 0
-228 193 0
228 -54 -193 0
-230 59 0
-230 69 0
230 -59 -69 0
-233 270 0
-233 127 0
233 -270 -127 0
-235 42 0
-235 212 0
235 -42 -212 0
-243 209 0
-243 215 0
243 -209 -215 0
245 -158 0
245 -131 0
-245 158 131 0
-253 223 0
-253 251 0
253 -223 -251 0
255 -151 0
255 -181 0
-255 151 181 0
257 -135 0
257 -167 0
-257 135 167 0
259 -242 0
259 -110 0
-259 242 110 0
-264 211 0
-264 260 0
264 -211 -260 0
